Version identifier: 20.1.0.0 | 2020-11-10 | 9bedb6d68
CPXPARAM_Simplex_Limits_Iterations               10000000
CPXPARAM_TimeLimit                               900
Tried aggregator 1 time.
LP Presolve eliminated 72 rows and 72 columns.
Aggregator did 1224 substitutions.
Reduced LP has 2234 rows, 3174 columns, and 14838 nonzeros.
Presolve time = 0.01 sec. (6.47 ticks)
Initializing dual steep norms . . .

Iteration log . . .
Iteration:     1   Dual objective     =     -25417361.161001
Iteration:   207   Dual objective     =      -1319530.044424
Iteration:   395   Dual objective     =      -1318937.267773
Iteration:   599   Dual objective     =      -1315812.975696
Iteration:   822   Dual objective     =      -1311901.346628

Optimal solution is available
Solution value = 0.000000

Simplex iterations = 853


Version identifier: 20.1.0.0 | 2020-11-10 | 9bedb6d68
CPXPARAM_Simplex_Limits_Iterations               10000000
CPXPARAM_TimeLimit                               900
Problem is feasible; no conflict available.
Version identifier: 20.1.0.0 | 2020-11-10 | 9bedb6d68
CPXPARAM_Simplex_Limits_Iterations               10000000
CPXPARAM_TimeLimit                               900
Tried aggregator 1 time.
LP Presolve eliminated 136 rows and 136 columns.
Aggregator did 1550 substitutions.
Reduced LP has 2270 rows, 3823 columns, and 18290 nonzeros.
Presolve time = 0.01 sec. (7.42 ticks)
Initializing dual steep norms . . .

Iteration log . . .
Iteration:     1   Dual objective     =     -25417361.161001
Iteration:   174   Dual objective     =      -8082471.727767
Iteration:   323   Dual objective     =      -1236731.771527
Iteration:   521   Dual objective     =      -1236712.914263

Optimal solution is available
Solution value = 0.000000

Simplex iterations = 681


Version identifier: 20.1.0.0 | 2020-11-10 | 9bedb6d68
CPXPARAM_Simplex_Limits_Iterations               10000000
CPXPARAM_TimeLimit                               900
Problem is feasible; no conflict available.
Version identifier: 20.1.0.0 | 2020-11-10 | 9bedb6d68
CPXPARAM_Simplex_Limits_Iterations               10000000
CPXPARAM_TimeLimit                               900
Tried aggregator 1 time.
LP Presolve eliminated 242 rows and 242 columns.
Aggregator did 1466 substitutions.
Reduced LP has 2248 rows, 3538 columns, and 16873 nonzeros.
Presolve time = 0.01 sec. (7.00 ticks)
Initializing dual steep norms . . .

Iteration log . . .
Iteration:     1   Dual objective     =     -25417361.161001
Iteration:   186   Dual objective     =      -7639820.877950
Iteration:   371   Dual objective     =      -1231957.428875
Iteration:   574   Dual objective     =      -1231866.489698
Iteration:   836   Dual objective     =      -1227996.541487

Optimal solution is available
Solution value = 0.000000

Simplex iterations = 853


Version identifier: 20.1.0.0 | 2020-11-10 | 9bedb6d68
CPXPARAM_Simplex_Limits_Iterations               10000000
CPXPARAM_TimeLimit                               900
Problem is feasible; no conflict available.
Version identifier: 20.1.0.0 | 2020-11-10 | 9bedb6d68
CPXPARAM_Simplex_Limits_Iterations               10000000
CPXPARAM_TimeLimit                               900
Tried aggregator 1 time.
LP Presolve eliminated 179 rows and 179 columns.
Aggregator did 1533 substitutions.
Reduced LP has 2244 rows, 3605 columns, and 17372 nonzeros.
Presolve time = 0.02 sec. (7.14 ticks)
Initializing dual steep norms . . .

Iteration log . . .
Iteration:     1   Dual objective     =     -25417361.161001
Iteration:   188   Dual objective     =      -4358982.828177
Iteration:   354   Dual objective     =      -1229431.105807
Iteration:   565   Dual objective     =      -1229303.666862

Optimal solution is available
Solution value = 0.000000

Simplex iterations = 757


Version identifier: 20.1.0.0 | 2020-11-10 | 9bedb6d68
CPXPARAM_Simplex_Limits_Iterations               10000000
CPXPARAM_TimeLimit                               900
Problem is feasible; no conflict available.
Version identifier: 20.1.0.0 | 2020-11-10 | 9bedb6d68
CPXPARAM_Simplex_Limits_Iterations               10000000
CPXPARAM_TimeLimit                               900
Tried aggregator 1 time.
LP Presolve eliminated 212 rows and 212 columns.
Aggregator did 1501 substitutions.
Reduced LP has 2243 rows, 3534 columns, and 16950 nonzeros.
Presolve time = 0.01 sec. (7.03 ticks)
Initializing dual steep norms . . .

Iteration log . . .
Iteration:     1   Dual objective     =     -25417361.161001
Iteration:   181   Dual objective     =      -7927619.116595
Iteration:   347   Dual objective     =      -1229220.907222
Iteration:   553   Dual objective     =      -1229183.182147
Iteration:   807   Dual objective     =      -1225704.797847

Optimal solution is available
Solution value = 0.000000

Simplex iterations = 813


Version identifier: 20.1.0.0 | 2020-11-10 | 9bedb6d68
CPXPARAM_Simplex_Limits_Iterations               10000000
CPXPARAM_TimeLimit                               900
Problem is feasible; no conflict available.
Version identifier: 20.1.0.0 | 2020-11-10 | 9bedb6d68
CPXPARAM_Simplex_Limits_Iterations               10000000
CPXPARAM_TimeLimit                               900
Tried aggregator 1 time.
LP Presolve eliminated 1382 rows and 431 columns.
Aggregator did 600 substitutions.
Reduced LP has 1140 rows, 3627 columns, and 10565 nonzeros.
Presolve time = 0.01 sec. (4.72 ticks)
Initializing dual steep norms . . .

Iteration log . . .
Iteration:     1   Dual objective     =     -25160066.893001
Iteration:   164   Dual objective     =      -2730069.598559
Iteration:   275   Dual objective     =      -2010313.413065
Iteration:   454   Dual objective     =      -1647383.573177

Optimal solution is available
Solution value = 0.000000

Simplex iterations = 624


Version identifier: 20.1.0.0 | 2020-11-10 | 9bedb6d68
CPXPARAM_Simplex_Limits_Iterations               10000000
CPXPARAM_TimeLimit                               900
Problem is feasible; no conflict available.
Version identifier: 20.1.0.0 | 2020-11-10 | 9bedb6d68
CPXPARAM_Simplex_Limits_Iterations               10000000
CPXPARAM_TimeLimit                               900
Tried aggregator 1 time.
LP Presolve eliminated 1382 rows and 431 columns.
Aggregator did 600 substitutions.
Reduced LP has 1140 rows, 3654 columns, and 10671 nonzeros.
Presolve time = 0.01 sec. (4.75 ticks)
Initializing dual steep norms . . .

Iteration log . . .
Iteration:     1   Dual objective     =     -25160066.893001
Iteration:   163   Dual objective     =      -2714993.183485
Iteration:   275   Dual objective     =      -1991098.714994
Iteration:   445   Dual objective     =      -1642596.512158

Optimal solution is available
Solution value = 0.000000

Simplex iterations = 616


Version identifier: 20.1.0.0 | 2020-11-10 | 9bedb6d68
CPXPARAM_Simplex_Limits_Iterations               10000000
CPXPARAM_TimeLimit                               900
Problem is feasible; no conflict available.
Version identifier: 20.1.0.0 | 2020-11-10 | 9bedb6d68
CPXPARAM_Simplex_Limits_Iterations               10000000
CPXPARAM_TimeLimit                               900
Tried aggregator 1 time.
LP Presolve eliminated 1382 rows and 431 columns.
Aggregator did 600 substitutions.
Reduced LP has 1140 rows, 3596 columns, and 10489 nonzeros.
Presolve time = 0.01 sec. (4.69 ticks)
Initializing dual steep norms . . .

Iteration log . . .
Iteration:     1   Dual objective     =     -25160066.893001
Iteration:   165   Dual objective     =      -2720916.532231
Iteration:   286   Dual objective     =      -1849325.187766
Iteration:   463   Dual objective     =      -1608042.831836

Optimal solution is available
Solution value = 0.000000

Simplex iterations = 620


Version identifier: 20.1.0.0 | 2020-11-10 | 9bedb6d68
CPXPARAM_Simplex_Limits_Iterations               10000000
CPXPARAM_TimeLimit                               900
Problem is feasible; no conflict available.
